2299818.0
985
2 5 6 7 8 10 11 12 15 20 21 22 24 26 27 29 31 33 34 35 36 37 38 40 42 44 45 47 51 52 53 55 56 59 60 61 62 63 65 66 67 68 69 70 71 72 73 74 75 76 77 79 80 81 83 84 87 88 89 90 91 92 93 96 97 